treewidth/data/HoltGraph.gr
p tw 27 54
1 23
1 25
1 16
1 20
2 21
2 26
2 17
2 18
13 22
13 24
13 15
13 19
21 4
21 9
21 10
22 27
22 8
22 10
23 3
23 8
23 9
24 3
24 16
24 17
25 4
25 15
25 17
26 27
26 15
26 16
27 7
27 9
3 5
3 10
4 6
4 8
5 14
5 19
5 20
6 11
6 18
6 20
7 12
7 18
7 19
8 12
9 14
10 11
11 17
11 19
12 15
12 20
14 16
14 18
