treewidth/data/HoltGraph.td
c width = 9, time = 0.342155
s td 14 10 27
b 1 7 8 9 10 18 19 20 24 25 26
b 2 8 9 10 18 19 20 23 24 25 26
b 3 9 10 14 18 19 20 23 24 25 26
b 4 1 14 16 20 23 24 25 26
b 5 3 5 10 14 19 20 23 24
b 6 8 9 10 18 19 20 21 24 25 26
b 7 8 10 11 18 19 20 21 24 25 26
b 8 2 11 17 18 21 24 25 26
b 9 4 6 8 11 18 20 21 25
b 10 7 8 9 10 19 20 22 24 25 26
b 11 7 8 15 19 20 22 24 25 26
b 12 7 8 12 15 20
b 13 13 15 19 22 24
b 14 7 9 22 26 27
3 4
3 5
2 3
1 2
7 8
7 9
6 7
1 6
11 12
11 13
10 11
10 14
1 10
